NAME : TSP_INST.7641130.tour
COMMENT : Length = 7641130
COMMENT : Found by LKH [Keld Helsgaun] Sat Oct 18 11:07:55 2025
TYPE : TOUR
DIMENSION : 100
TOUR_SECTION
1
51
24
28
82
13
83
19
23
18
73
27
6
64
41
10
49
43
15
45
59
11
26
35
58
7
75
42
39
22
72
12
92
34
67
89
38
52
77
30
80
46
56
2
87
57
98
84
70
88
47
54
31
90
60
50
78
61
79
99
63
68
14
62
85
16
74
71
55
86
94
3
76
95
25
53
40
21
29
36
93
81
5
97
17
48
33
91
96
66
4
65
100
32
9
20
37
8
44
69
-1
EOF
